Gurobi Optimizer version 9.1.0 build v9.1.0rc0 (linux64)
Thread count: 8 physical cores, 16 logical processors, using up to 16 threads
Optimize a model with 96164 rows, 90720 columns and 526770 nonzeros
Model fingerprint: 0x05371d3e
Variable types: 0 continuous, 90720 integer (90720 binary)
Coefficient statistics:
  Matrix range     [1e+00, 1e+00]
  Objective range  [1e+01, 3e+04]
  Bounds range     [1e+00, 1e+00]
  RHS range        [1e+00, 2e+02]
Presolve added 0 rows and 2470 columns
Presolve removed 30 rows and 0 columns
Presolve time: 2.07s
Presolved: 96134 rows, 93190 columns, 384210 nonzeros
Variable types: 0 continuous, 93190 integer (93190 binary)
Found heuristic solution: objective 348650.00000

Concurrent LP optimizer: primal simplex, dual simplex, and barrier
Showing barrier log only...

Root barrier log...

Ordering time: 0.36s

Barrier statistics:
 Dense cols : 360
 AA' NZ     : 2.982e+05
 Factor NZ  : 1.555e+06 (roughly 90 MBytes of memory)
 Factor Ops : 4.160e+08 (less than 1 second per iteration)
 Threads    : 6

                  Objective                Residual
Iter       Primal          Dual         Primal    Dual     Compl     Time
   0   7.57894376e+07 -1.11529930e+08  2.10e+02 3.36e+01  9.88e+03     4s
   1   7.81526723e+05 -1.23432158e+08  1.28e+00 3.85e+02  5.04e+02     4s
   2   4.56010575e+05 -5.41660827e+07  2.99e-01 1.68e+02  2.05e+02     4s
   3   4.02919994e+05 -1.52438969e+07  1.34e-01 4.48e+01  5.78e+01     5s
   4   3.68698350e+05 -9.23835989e+05  3.92e-02 3.04e+01  4.68e+00     5s
   5   3.52557031e+05 -3.37784427e+05  2.73e-02 1.49e+01  2.49e+00     5s
   6   3.31395173e+05  4.00466691e+04  1.53e-02 6.38e+00  1.04e+00     5s
   7   3.18539205e+05  1.69857537e+05  1.13e-02 2.62e+00  5.29e-01     5s
   8   3.09352151e+05  2.15113889e+05  8.90e-03 1.39e+00  3.33e-01     6s
   9   3.04336320e+05  2.36171240e+05  7.81e-03 8.57e-01  2.40e-01     6s
  10   3.00047593e+05  2.41295116e+05  6.87e-03 7.25e-01  2.06e-01     6s
  11   2.95035213e+05  2.50532536e+05  5.80e-03 4.59e-01  1.56e-01     6s
  12   2.89306414e+05  2.58079088e+05  4.60e-03 2.92e-01  1.09e-01     7s
  13   2.85500503e+05  2.61562849e+05  3.83e-03 1.83e-01  8.31e-02     7s
  14   2.81995092e+05  2.63455529e+05  3.08e-03 1.31e-01  6.43e-02     7s
  15   2.79947071e+05  2.64693811e+05  2.65e-03 9.14e-02  5.28e-02     7s
  16   2.77653354e+05  2.65422155e+05  2.15e-03 6.95e-02  4.23e-02     7s
  17   2.75963778e+05  2.66056669e+05  1.79e-03 5.19e-02  3.42e-02     8s
  18   2.74682903e+05  2.66499232e+05  1.52e-03 4.12e-02  2.82e-02     8s
  19   2.72645787e+05  2.66740624e+05  1.06e-03 3.39e-02  2.04e-02     8s
  20   2.71808008e+05  2.67034756e+05  8.66e-04 2.46e-02  1.65e-02     8s
  21   2.71253775e+05  2.67381411e+05  7.30e-04 1.72e-02  1.34e-02     8s
  22   2.70501693e+05  2.67450275e+05  5.61e-04 1.56e-02  1.05e-02     8s
  23   2.70196179e+05  2.67647215e+05  4.93e-04 1.16e-02  8.78e-03     9s
  24   2.69934853e+05  2.67730180e+05  4.32e-04 9.34e-03  7.59e-03     9s
  25   2.69795784e+05  2.67820205e+05  3.96e-04 7.80e-03  6.80e-03     9s
  26   2.69358078e+05  2.67880327e+05  2.92e-04 6.25e-03  5.09e-03     9s
  27   2.69172264e+05  2.67954409e+05  2.44e-04 4.87e-03  4.19e-03     9s
  28   2.68980940e+05  2.67967838e+05  2.02e-04 4.60e-03  3.49e-03     9s
  29   2.68870762e+05  2.67991603e+05  1.74e-04 4.37e-03  3.03e-03    10s
  30   2.68742794e+05  2.68034991e+05  1.41e-04 3.30e-03  2.44e-03    10s
  31   2.68710772e+05  2.68063616e+05  1.32e-04 2.64e-03  2.22e-03    10s
  32   2.68629823e+05  2.68088841e+05  1.12e-04 2.14e-03  1.86e-03    10s
  33   2.68512899e+05  2.68106165e+05  8.12e-05 1.91e-03  1.40e-03    10s
  34   2.68467548e+05  2.68138049e+05  6.93e-05 1.35e-03  1.13e-03    10s
  35   2.68439205e+05  2.68154531e+05  6.21e-05 1.04e-03  9.75e-04    11s
  36   2.68402653e+05  2.68164339e+05  5.22e-05 8.45e-04  8.16e-04    11s
  37   2.68372832e+05  2.68167730e+05  4.41e-05 7.78e-04  7.03e-04    11s
  38   2.68349377e+05  2.68173409e+05  3.82e-05 6.55e-04  6.03e-04    11s
  39   2.68320549e+05  2.68179781e+05  3.03e-05 4.95e-04  4.83e-04    11s
  40   2.68299088e+05  2.68182684e+05  2.53e-05 4.45e-04  3.99e-04    11s
  41   2.68279540e+05  2.68186715e+05  2.00e-05 3.57e-04  3.18e-04    11s
  42   2.68271745e+05  2.68192749e+05  1.78e-05 2.55e-04  2.70e-04    12s
  43   2.68257763e+05  2.68195100e+05  1.38e-05 2.11e-04  2.15e-04    12s
  44   2.68251240e+05  2.68195995e+05  1.21e-05 1.94e-04  1.89e-04    12s
  45   2.68241232e+05  2.68198348e+05  9.44e-06 1.55e-04  1.47e-04    12s
  46   2.68237585e+05  2.68199982e+05  8.38e-06 1.29e-04  1.29e-04    12s
  47   2.68233821e+05  2.68200864e+05  7.39e-06 1.15e-04  1.13e-04    12s
  48   2.68229789e+05  2.68202397e+05  6.32e-06 8.79e-05  9.36e-05    12s
  49   2.68221362e+05  2.68203737e+05  4.06e-06 6.41e-05  6.03e-05    13s
  50   2.68218338e+05  2.68204170e+05  3.20e-06 5.69e-05  4.85e-05    13s
  51   2.68215517e+05  2.68205485e+05  2.32e-06 3.51e-05  3.43e-05    13s
  52   2.68213725e+05  2.68205927e+05  1.78e-06 2.92e-05  2.67e-05    13s
  53   2.68213187e+05  2.68206302e+05  1.62e-06 2.37e-05  2.35e-05    13s
  54   2.68212120e+05  2.68206803e+05  1.28e-06 1.65e-05  1.81e-05    13s
  55   2.68211671e+05  2.68206943e+05  1.15e-06 1.44e-05  1.61e-05    13s
  56   2.68211242e+05  2.68207063e+05  1.03e-06 1.26e-05  1.42e-05    13s
  57   2.68210792e+05  2.68207197e+05  9.02e-07 1.04e-05  1.22e-05    14s
  58   2.68210439e+05  2.68207299e+05  7.89e-07 8.76e-06  1.07e-05    14s
  59   2.68209372e+05  2.68207423e+05  4.47e-07 6.99e-06  6.66e-06    14s
  60   2.68209042e+05  2.68207543e+05  3.43e-07 5.32e-06  5.13e-06    14s
  61   2.68208980e+05  2.68207624e+05  3.23e-07 4.07e-06  4.62e-06    14s
  62   2.68208807e+05  2.68207656e+05  2.69e-07 3.64e-06  3.93e-06    14s
  63   2.68208369e+05  2.68207742e+05  1.38e-07 2.39e-06  2.15e-06    14s
  64   2.68208322e+05  2.68207808e+05  1.24e-07 1.52e-06  1.76e-06    15s
  65   2.68208212e+05  2.68207826e+05  8.83e-08 1.25e-06  1.32e-06    15s
  66   2.68208115e+05  2.68207855e+05  5.78e-08 8.59e-07  8.88e-07    15s
  67   2.68208018e+05  2.68207860e+05  2.75e-08 8.07e-07  5.48e-07    15s
  68   2.68207992e+05  2.68207884e+05  1.93e-08 4.90e-07  3.75e-07    15s
  69   2.68207975e+05  2.68207893e+05  1.45e-08 3.76e-07  2.84e-07    15s
  70   2.68207954e+05  2.68207904e+05  8.14e-09 2.55e-07  1.73e-07    15s
  71   2.68207940e+05  2.68207910e+05  4.21e-09 2.23e-07  1.06e-07    16s
  72   2.68207939e+05  2.68207914e+05  3.95e-09 1.58e-07  8.63e-08    16s
  73   2.68207939e+05  2.68207915e+05  3.82e-09 1.48e-07  8.23e-08    16s
  74   2.68207934e+05  2.68207916e+05  2.50e-09 1.28e-07  6.22e-08    16s
  75   2.68207934e+05  2.68207917e+05  5.31e-09 1.26e-07  6.11e-08    16s
  76   2.68207934e+05  2.68207917e+05  6.37e-09 1.18e-07  5.94e-08    16s
  77   2.68207934e+05  2.68207917e+05  6.34e-09 1.18e-07  5.90e-08    17s

Barrier solved model in 77 iterations and 16.55 seconds
Optimal objective 2.68207934e+05


Root crossover log...

   22188 DPushes remaining with DInf 3.5981448e-05                17s
       0 DPushes remaining with DInf 0.0000000e+00                17s

     673 PPushes remaining with PInf 2.6328963e-05                17s
       0 PPushes remaining with PInf 0.0000000e+00                17s

  Push phase complete: Pinf 0.0000000e+00, Dinf 5.3966723e-01     17s


Root simplex log...

Iteration    Objective       Primal Inf.    Dual Inf.      Time
    4343    2.6820793e+05   0.000000e+00   5.396672e-01     17s
    4345    2.6820793e+05   0.000000e+00   0.000000e+00     17s
    4345    2.6820793e+05   0.000000e+00   0.000000e+00     17s

Solved with barrier

Root relaxation: objective 2.682079e+05, 4345 iterations, 14.34 seconds

    Nodes    |    Current Node    |     Objective Bounds      |     Work
 Expl Unexpl |  Obj  Depth IntInf | Incumbent    BestBd   Gap | It/Node Time

     0     0 268207.926    0 9636 348650.000 268207.926  23.1%     -   18s
H    0     0                    277158.00000 268207.926  3.23%     -   19s
H    0     0                    277043.00000 268207.926  3.19%     -   19s
H    0     0                    277006.00000 268207.926  3.18%     -   19s
     0     0 268207.926    0 9629 277006.000 268207.926  3.18%     -   37s
H    0     0                    276679.00000 268207.926  3.06%     -   60s
H    0     0                    276669.00000 268207.926  3.06%     -   60s
H    0     2                    276620.00000 268207.926  3.04%     -   63s
     0     2 268207.926    0 9629 276620.000 268207.926  3.04%     -   63s
     1     4 268253.930    1 9144 276620.000 268208.016  3.04%  3600  124s
     3     8 268332.288    2 9105 276620.000 268254.107  3.02%  8370  205s
     7    15 268350.916    3 9419 276620.000 268332.292  3.00% 10564  300s

Explored 14 nodes (116808 simplex iterations) in 300.05 seconds
Thread count was 16 (of 16 available processors)

Solution count 7: 276620 276669 276679 ... 348650

Time limit reached
Best objective 2.766200000000e+05, best bound 2.683330000000e+05, gap 2.9958%

User-callback calls 176254, time in user-callback 2.70 sec
Result: runtime=300.02sec; objective=276620; gap=2.9958%
Solution written to /autofs/unityaccount/cremi/mdeboute/Bureau/multi-period-flp/solution//instMulti_I30_J250_T12_1_result.txt
